param nTruck := 5;
param nNode := 10;
param MaxDistance := 87;

param Distance:
	1	2	3	4	5	6	7	8	9	10 :=
1	0	1	2	3	4	5	6	7	8	9
2	1	0	1	2	3	4	5	6	7	8
3	2	1	0	1	2	3	4	5	6	7
4	3	2	1	0	1	2	3	4	5	6
5	4	3	2	1	0	1	2	3	4	5
6	5	4	3	2	1	0	1	2	3	4
7	6	5	4	3	2	1	0	1	2	3
8	7	6	5	4	3	2	1	0	1	2
9	8	7	6	5	4	3	2	1	0	1
10	9	8	7	6	5	4	3	2	1	0;


param Weight:=
1	2
2	4
3	6
4	7
5	3
6	4
7	5
8	2
9	9
10	1;